0
Node Left Objective IInf Best_Integer Best_Bound ItCnt Gap
0+ 0 nan nan 883.5817 0.0000 nan 100.00%
0+ 0 nan nan 639.6325 0.0000 nan 100.00%
0 0 262.6193 7 639.6325 262.6193 42 58.94%
0 0 289.1734 9 639.6325 Disjcuts:7 60 54.79%
0+ 0 nan nan 462.8177 289.1734 nan 37.52%
0 0 308.4468 9 462.8177 Disjcuts:8 77 33.35%
0 0 317.3328 8 462.8177 Disjcuts:7 97 31.43%
0 0 320.0307 8 462.8177 Disjcuts:6 117 30.85%
0+ 0 nan nan 415.0905 320.0307 nan 22.90%
0 0 325.7411 8 415.0905 Disjcuts:8 136 21.53%
0 0 329.7083 9 415.0905 Disjcuts:4 151 20.57%
0 0 330.8915 8 415.0905 Disjcuts:1 161 20.28%
0 2 330.8915 8 415.0905 332.1561 161 19.98%
CPXPARAM_MIP_Cuts_Disjunctive 8
1
Node Left Objective IInf Best_Integer Best_Bound ItCnt Gap
0+ 0 nan nan 883.5817 0.0000 nan 100.00%
0 0 integral 0 262.6193 262.6193 40 0.00%
CPXPARAM_MIP_Cuts_Disjunctive 0
2
Node Left Objective IInf Best_Integer Best_Bound ItCnt Gap
0+ 0 nan nan 883.5817 0.0000 nan 100.00%
0+ 0 nan nan 639.6325 0.0000 nan 100.00%
0 0 269.4766 5 639.6325 269.4766 42 57.87%
0 0 279.5547 7 639.6325 Disjcuts:5 54 56.29%
0+ 0 nan nan 583.4780 279.5547 nan 52.09%
0 0 302.6385 7 583.4780 Disjcuts:5 64 48.13%
0+ 0 nan nan 501.1637 302.6385 nan 39.61%
0 0 316.1751 8 501.1637 Disjcuts:8 84 36.91%
0+ 0 nan nan 428.5759 316.1751 nan 26.23%
0 0 319.6664 8 428.5759 Disjcuts:5 100 25.41%
0 0 329.7787 8 428.5759 Disjcuts:7 114 23.05%
0+ 0 nan nan 415.0905 329.7787 nan 20.55%
0 0 331.4686 8 415.0905 Disjcuts:1 126 20.15%
0 0 332.1144 8 415.0905 Disjcuts:3 131 19.99%
0 0 332.1462 8 415.0905 Disjcuts:1 132 19.98%
0 0 332.3793 9 415.0905 Disjcuts:2 135 19.93%
0 2 333.5541 7 415.0905 333.5679 135 19.64%
CPXPARAM_MIP_Cuts_Disjunctive 12
3
Node Left Objective IInf Best_Integer Best_Bound ItCnt Gap
0+ 0 nan nan 883.5817 0.0000 nan 100.00%
0 0 314.8220 1 883.5817 314.8220 38 64.37%
0+ 0 nan nan 315.1239 314.8220 nan 0.10%
0 0 integral 0 314.8876 Disjcuts:1 40 0.00%
0 0 cutoff 314.8876 314.8876 40 0.00% 0
CPXPARAM_MIP_Cuts_Disjunctive 1
4
Node Left Objective IInf Best_Integer Best_Bound ItCnt Gap
0+ 0 nan nan 693.8542 0.0000 nan 100.00%
0+ 0 nan nan 634.5912 0.0000 nan 100.00%
0 0 405.5114 7 634.5912 405.5114 50 36.10%
0 0 410.0944 9 634.5912 Disjcuts:7 63 35.38%
0+ 0 nan nan 455.9855 410.0944 nan 10.06%
0 0 416.4981 9 455.9855 Disjcuts:8 73 8.66%
0 0 421.7111 8 455.9855 Disjcuts:6 87 7.52%
0 0 422.3342 8 455.9855 Disjcuts:5 92 7.38%
0 0 424.0857 8 455.9855 Disjcuts:4 103 7.00%
0+ 0 nan nan 449.4074 424.0857 nan 5.63%
0 2 424.1745 6 449.4074 424.1766 103 5.61%
CPXPARAM_MIP_Cuts_Disjunctive 7
5
Node Left Objective IInf Best_Integer Best_Bound ItCnt Gap
0+ 0 nan nan 693.8542 0.0000 nan 100.00%
0 0 405.5114 1 693.8542 405.5114 49 41.56%
0+ 0 nan nan 407.3057 405.5114 nan 0.44%
0 0 integral 0 405.9187 405.9187 52 0.00%
CPXPARAM_MIP_Cuts_Disjunctive 0
6
Node Left Objective IInf Best_Integer Best_Bound ItCnt Gap
0+ 0 nan nan 693.8542 0.0000 nan 100.00%
0+ 0 nan nan 652.0517 0.0000 nan 100.00%
0+ 0 nan nan 648.3061 0.0000 nan 100.00%
0 0 405.5114 7 648.3061 405.5114 44 37.45%
0 0 412.7793 9 648.3061 Disjcuts:7 54 36.33%
0+ 0 nan nan 449.4074 412.7793 nan 8.15%
0 0 415.7238 9 449.4074 Disjcuts:9 64 7.50%
0 0 418.4862 9 449.4074 Disjcuts:8 74 6.88%
0 0 421.1799 7 449.4074 Disjcuts:5 86 6.28%
0+ 0 nan nan 441.1644 421.1799 nan 4.53%
0 0 421.5794 8 441.1644 Disjcuts:7 94 4.44%
0 2 422.5809 7 441.1644 422.6010 94 4.21%
CPXPARAM_MIP_Cuts_Disjunctive 8
7
Node Left Objective IInf Best_Integer Best_Bound ItCnt Gap
0+ 0 nan nan 693.8542 0.0000 nan 100.00%
0 0 integral 0 425.0746 425.0746 34 0.00%
CPXPARAM_MIP_Cuts_Disjunctive 0
8
Node Left Objective IInf Best_Integer Best_Bound ItCnt Gap
0+ 0 nan nan 845.6683 0.0000 nan 100.00%
0+ 0 nan nan 648.8417 0.0000 nan 100.00%
0 0 484.8467 7 648.8417 484.8467 54 25.28%
0 0 509.4989 8 648.8417 Disjcuts:7 65 21.48%
0 0 517.7960 9 648.8417 Disjcuts:8 72 20.20%
0 0 527.8600 9 648.8417 Disjcuts:7 82 18.65%
0+ 0 nan nan 607.3004 527.8600 nan 13.08%
0 0 534.3335 9 607.3004 Disjcuts:6 95 12.01%
0 0 535.7003 8 607.3004 Disjcuts:8 110 11.79%
0 2 535.7003 8 607.3004 535.7817 110 11.78%
CPXPARAM_MIP_Cuts_Disjunctive 7
9
Node Left Objective IInf Best_Integer Best_Bound ItCnt Gap
0+ 0 nan nan 845.6683 0.0000 nan 100.00%
0 0 integral 0 484.8467 484.8467 43 0.00%
CPXPARAM_MIP_Cuts_Disjunctive 0
10
Node Left Objective IInf Best_Integer Best_Bound ItCnt Gap
0+ 0 nan nan 845.6683 0.0000 nan 100.00%
0 0 498.6071 5 845.6683 498.6071 38 41.04%
0+ 0 nan nan 697.1349 498.6071 nan 28.48%
0 0 504.2498 8 697.1349 Disjcuts:5 48 27.67%
0+ 0 nan nan 648.8417 504.2498 nan 22.28%
0 0 518.6022 8 648.8417 Disjcuts:7 59 20.07%
0+ 0 nan nan 631.7880 518.6022 nan 17.92%
0 0 529.8797 8 631.7880 Disjcuts:7 71 16.13%
0 0 534.7204 9 631.7880 Disjcuts:9 84 15.36%
0 0 535.0806 9 631.7880 Disjcuts:4 90 15.31%
0+ 0 nan nan 607.3004 535.0806 nan 11.89%
0 0 536.9570 7 607.3004 Disjcuts:1 98 11.58%
0 2 537.3530 6 607.3004 539.5857 98 11.15%
CPXPARAM_MIP_Cuts_Disjunctive 8
11
Node Left Objective IInf Best_Integer Best_Bound ItCnt Gap
0+ 0 nan nan 845.6683 0.0000 nan 100.00%
0 0 integral 0 561.1585 561.1585 45 0.00%
CPXPARAM_MIP_Cuts_Disjunctive 0
12
Node Left Objective IInf Best_Integer Best_Bound ItCnt Gap
0+ 0 nan nan 656.4681 0.0000 nan 100.00%
0+ 0 nan nan 534.4657 0.0000 nan 100.00%
0 0 386.2283 7 534.4657 386.2283 47 27.74%
0 0 389.9685 9 534.4657 Disjcuts:6 59 27.04%
0+ 0 nan nan 526.4159 389.9685 nan 25.92%
0 0 398.7990 9 526.4159 Disjcuts:9 70 24.24%
0+ 0 nan nan 521.2586 398.7990 nan 23.49%
0 0 402.5173 9 521.2586 Disjcuts:8 79 22.78%
0 0 411.1522 9 521.2586 Disjcuts:8 99 21.12%
0+ 0 nan nan 474.3633 411.1522 nan 13.33%
0 0 413.4509 9 474.3633 Disjcuts:7 111 12.84%
0 0 414.0777 9 474.3633 Disjcuts:2 116 12.71%
0 2 414.0777 9 474.3633 414.9047 116 12.53%
CPXPARAM_MIP_Cuts_Disjunctive 9
13
Node Left Objective IInf Best_Integer Best_Bound ItCnt Gap
0+ 0 nan nan 656.4681 0.0000 nan 100.00%
0 0 integral 0 389.1110 389.1110 45 0.00%
CPXPARAM_MIP_Cuts_Disjunctive 0
14
Node Left Objective IInf Best_Integer Best_Bound ItCnt Gap
0+ 0 nan nan 656.4681 0.0000 nan 100.00%
0+ 0 nan nan 534.4657 0.0000 nan 100.00%
0 0 386.2283 7 534.4657 386.2283 36 27.74%
0 0 389.5987 9 534.4657 Disjcuts:6 48 27.11%
0+ 0 nan nan 526.4159 389.5987 nan 25.99%
0 0 397.3879 9 526.4159 Disjcuts:8 63 24.51%
0+ 0 nan nan 518.5366 397.3879 nan 23.36%
0 0 403.6699 9 518.5366 Disjcuts:8 74 22.15%
0+ 0 nan nan 488.8119 403.6699 nan 17.42%
0 0 405.7515 8 488.8119 Disjcuts:7 83 16.99%
0+ 0 nan nan 474.3633 405.7515 nan 14.46%
0 0 409.7220 9 474.3633 Disjcuts:8 98 13.63%
0 0 409.7845 9 474.3633 Disjcuts:1 101 13.61%
0 0 409.7978 9 474.3633 Disjcuts:1 104 13.61%
0+ 0 nan nan 465.9177 409.7978 nan 12.05%
0 2 409.7978 9 465.9177 410.1598 104 11.97%
CPXPARAM_MIP_Cuts_Disjunctive 7
15
Node Left Objective IInf Best_Integer Best_Bound ItCnt Gap
0+ 0 nan nan 656.4681 0.0000 nan 100.00%
0 0 integral 0 410.1756 410.1756 35 0.00%
CPXPARAM_MIP_Cuts_Disjunctive 0
16
Node Left Objective IInf Best_Integer Best_Bound ItCnt Gap
0+ 0 nan nan 673.4267 0.0000 nan 100.00%
0+ 0 nan nan 482.5302 0.0000 nan 100.00%
0 0 417.5617 7 482.5302 417.5617 54 13.46%
0+ 0 nan nan 465.0575 417.5617 nan 10.21%
0 2 417.5617 7 465.0575 417.5617 54 10.21%
CPXPARAM_MIP_Cuts_Disjunctive 0
17
Node Left Objective IInf Best_Integer Best_Bound ItCnt Gap
0+ 0 nan nan 673.4267 0.0000 nan 100.00%
0 0 integral 0 425.9937 425.9937 45 0.00%
CPXPARAM_MIP_Cuts_Disjunctive 0
18
Node Left Objective IInf Best_Integer Best_Bound ItCnt Gap
0+ 0 nan nan 673.4267 0.0000 nan 100.00%
0 0 423.0032 5 673.4267 423.0032 39 37.19%
0+ 0 nan nan 591.6412 423.0032 nan 28.50%
0 0 423.4844 8 591.6412 Disjcuts:3 46 28.42%
0+ 0 nan nan 465.5226 423.4844 nan 9.03%
0 0 427.3259 7 465.5226 Disjcuts:7 54 8.21%
0 0 429.3885 8 465.5226 Disjcuts:6 62 7.76%
0 0 430.7105 6 465.5226 Disjcuts:7 75 7.48%
0 0 431.5002 7 465.5226 Disjcuts:4 82 7.31%
0 2 431.5002 7 465.5226 431.7805 82 7.25%
CPXPARAM_MIP_Cuts_Disjunctive 4
19
Node Left Objective IInf Best_Integer Best_Bound ItCnt Gap
0+ 0 nan nan 673.4267 0.0000 nan 100.00%
0+ 0 nan nan 448.7922 0.0000 nan 100.00%
0 0 integral 0 446.2379 446.2379 37 0.00%
CPXPARAM_MIP_Cuts_Disjunctive 0
20
Node Left Objective IInf Best_Integer Best_Bound ItCnt Gap
0+ 0 nan nan 525.1284 0.0000 nan 100.00%
0+ 0 nan nan 499.7053 0.0000 nan 100.00%
0 0 283.8374 7 499.7053 283.8374 45 43.20%
0+ 0 nan nan 335.4671 283.8374 nan 15.39%
0 0 287.2278 9 335.4671 Disjcuts:6 56 14.38%
0 0 291.6172 9 335.4671 Disjcuts:6 69 13.07%
0 0 295.1982 9 335.4671 Disjcuts:6 79 12.00%
0+ 0 nan nan 315.2212 295.1982 nan 6.35%
0 0 296.4797 8 315.2212 Disjcuts:5 87 5.95%
0 0 297.4657 8 315.2212 Disjcuts:4 97 5.63%
0 2 297.5608 6 315.2212 297.6790 97 5.57%
CPXPARAM_MIP_Cuts_Disjunctive 10
21
Node Left Objective IInf Best_Integer Best_Bound ItCnt Gap
0+ 0 nan nan 525.1284 0.0000 nan 100.00%
0 0 integral 0 283.8374 283.8374 44 0.00%
CPXPARAM_MIP_Cuts_Disjunctive 0
22
Node Left Objective IInf Best_Integer Best_Bound ItCnt Gap
0+ 0 nan nan 525.1284 0.0000 nan 100.00%
0+ 0 nan nan 502.7786 0.0000 nan 100.00%
0 0 286.9244 7 502.7786 286.9244 33 42.93%
0+ 0 nan nan 406.3795 286.9244 nan 29.39%
0 0 295.4217 8 406.3795 Disjcuts:6 45 27.30%
0+ 0 nan nan 392.9654 295.4217 nan 24.82%
0 0 299.7591 9 392.9654 Disjcuts:6 56 23.72%
0 0 302.4445 9 392.9654 Disjcuts:6 63 23.04%
0+ 0 nan nan 391.3528 302.4445 nan 22.72%
0 0 306.3200 9 391.3528 Disjcuts:8 75 21.73%
0+ 0 nan nan 315.4732 306.3200 nan 2.90%
0 0 307.2230 8 315.4732 Disjcuts:3 81 2.62%
0 0 307.3179 8 315.4732 Disjcuts:1 83 2.59%
0 0 307.5729 8 315.4732 Disjcuts:1 86 2.50%
0 2 312.3652 3 315.4732 312.4240 86 0.97%
CPXPARAM_MIP_Cuts_Disjunctive 7
23
Node Left Objective IInf Best_Integer Best_Bound ItCnt Gap
0+ 0 nan nan 525.1284 0.0000 nan 100.00%
0 0 integral 0 293.4740 293.4740 26 0.00%
CPXPARAM_MIP_Cuts_Disjunctive 0
24
Node Left Objective IInf Best_Integer Best_Bound ItCnt Gap
0+ 0 nan nan 549.2671 0.0000 nan 100.00%
0+ 0 nan nan 473.7492 0.0000 nan 100.00%
0 0 363.2658 7 473.7492 363.2658 42 23.32%
0+ 0 nan nan 458.3613 363.2658 nan 20.75%
0 0 366.2512 9 458.3613 Disjcuts:7 54 20.10%
0+ 0 nan nan 444.0143 366.2512 nan 17.51%
0 0 368.5691 7 444.0143 Disjcuts:8 66 16.99%
0+ 0 nan nan 399.6484 368.5691 nan 7.78%
0 0 370.0380 9 399.6484 Disjcuts:5 70 7.41%
0 0 374.0049 8 399.6484 Disjcuts:5 79 6.42%
0 0 374.9380 9 399.6484 Disjcuts:3 93 6.18%
0 0 376.1039 8 399.6484 Disjcuts:3 99 5.89%
0 2 376.2854 7 399.6484 378.0820 99 5.40%
CPXPARAM_MIP_Cuts_Disjunctive 9
25
Node Left Objective IInf Best_Integer Best_Bound ItCnt Gap
0+ 0 nan nan 549.2671 0.0000 nan 100.00%
0 0 integral 0 372.4575 372.4575 43 0.00%
CPXPARAM_MIP_Cuts_Disjunctive 0
26
Node Left Objective IInf Best_Integer Best_Bound ItCnt Gap
0+ 0 nan nan 549.2671 0.0000 nan 100.00%
0+ 0 nan nan 476.4585 0.0000 nan 100.00%
0 0 372.1627 6 476.4585 372.1627 30 21.89%
0 0 377.6577 6 476.4585 Disjcuts:6 41 20.74%
0+ 0 nan nan 404.2019 377.6577 nan 6.57%
0 0 380.9717 6 404.2019 Disjcuts:6 46 5.75%
0 0 382.5603 7 404.2019 Disjcuts:6 56 5.35%
0+ 0 nan nan 399.6484 382.5603 nan 4.28%
0 0 382.7681 7 399.6484 Disjcuts:6 62 4.22%
0 0 383.4955 6 399.6484 Disjcuts:5 71 4.04%
0 2 383.5077 5 399.6484 383.9926 71 3.92%
CPXPARAM_MIP_Cuts_Disjunctive 6
27
Node Left Objective IInf Best_Integer Best_Bound ItCnt Gap
0+ 0 nan nan 549.2671 0.0000 nan 100.00%
0 0 integral 0 385.0255 385.0255 33 0.00%
CPXPARAM_MIP_Cuts_Disjunctive 0
28
Node Left Objective IInf Best_Integer Best_Bound ItCnt Gap
0+ 0 nan nan 941.7205 0.0000 nan 100.00%
0+ 0 nan nan 872.5219 0.0000 nan 100.00%
0 0 601.4591 6 872.5219 601.4591 44 31.07%
0+ 0 nan nan 737.8283 601.4591 nan 18.48%
0 0 603.7638 7 737.8283 Disjcuts:3 51 18.17%
0+ 0 nan nan 685.4619 603.7638 nan 11.92%
0 0 610.2878 8 685.4619 Disjcuts:8 60 10.97%
0 0 618.7020 8 685.4619 Disjcuts:8 68 9.74%
0+ 0 nan nan 652.5589 618.7020 nan 5.19%
0 0 621.0026 6 652.5589 Disjcuts:2 72 4.84%
0 0 625.5260 7 652.5589 Disjcuts:3 81 4.14%
0 0 626.1855 7 652.5589 Disjcuts:2 82 4.04%
0 2 628.4947 5 652.5589 629.0179 82 3.61%
CPXPARAM_MIP_Cuts_Disjunctive 7
29
Node Left Objective IInf Best_Integer Best_Bound ItCnt Gap
0+ 0 nan nan 941.7205 0.0000 nan 100.00%
0 0 integral 0 596.9704 596.9704 48 0.00%
CPXPARAM_MIP_Cuts_Disjunctive 0
30
Node Left Objective IInf Best_Integer Best_Bound ItCnt Gap
0+ 0 nan nan 941.7205 0.0000 nan 100.00%
0+ 0 nan nan 877.2624 0.0000 nan 100.00%
0 0 601.4591 6 877.2624 601.4591 46 31.44%
0+ 0 nan nan 696.2579 601.4591 nan 13.62%
0 0 603.7062 8 696.2579 Disjcuts:4 55 13.29%
0 0 611.9187 7 696.2579 Disjcuts:9 71 12.11%
0 0 620.7341 7 696.2579 Disjcuts:6 80 10.85%
0+ 0 nan nan 652.5589 620.7341 nan 4.88%
0 0 624.5223 6 652.5589 Disjcuts:6 91 4.30%
0 0 627.7688 7 652.5589 Disjcuts:6 102 3.80%
0 0 629.4778 7 652.5589 Disjcuts:2 107 3.54%
0 0 629.6575 7 652.5589 Disjcuts:1 109 3.51%
0 0 cutoff 652.5589 629.6575 109 3.51% 0
CPXPARAM_MIP_Cuts_Disjunctive 7
31
Node Left Objective IInf Best_Integer Best_Bound ItCnt Gap
0+ 0 nan nan 941.7205 0.0000 nan 100.00%
0 0 integral 0 601.4591 601.4591 41 0.00%
CPXPARAM_MIP_Cuts_Disjunctive 0
32
Node Left Objective IInf Best_Integer Best_Bound ItCnt Gap
0+ 0 nan nan 671.2898 0.0000 nan 100.00%
0+ 0 nan nan 538.6067 0.0000 nan 100.00%
0 0 285.1772 7 538.6067 285.1772 48 47.05%
0+ 0 nan nan 527.4518 285.1772 nan 45.93%
0 0 296.6709 9 527.4518 Disjcuts:6 62 43.75%
0+ 0 nan nan 398.4261 296.6709 nan 25.54%
0 0 312.5423 9 398.4261 Disjcuts:8 75 21.56%
0+ 0 nan nan 392.1998 312.5423 nan 20.31%
0 0 314.8579 9 392.1998 Disjcuts:4 89 19.72%
0 0 327.4205 8 392.1998 Disjcuts:6 110 16.52%
0 0 328.9376 8 392.1998 Disjcuts:5 118 16.13%
0 0 334.9294 8 392.1998 Disjcuts:1 126 14.60%
0 2 337.4451 7 392.1998 337.6849 126 13.90%
CPXPARAM_MIP_Cuts_Disjunctive 5
33
Node Left Objective IInf Best_Integer Best_Bound ItCnt Gap
0+ 0 nan nan 671.2898 0.0000 nan 100.00%
0 0 304.9439 1 671.2898 304.9439 48 54.57%
0+ 0 nan nan 305.0518 304.9439 nan 0.04%
0 0 integral 0 304.9870 304.9870 50 0.00%
CPXPARAM_MIP_Cuts_Disjunctive 0
34
Node Left Objective IInf Best_Integer Best_Bound ItCnt Gap
0+ 0 nan nan 671.2898 0.0000 nan 100.00%
0+ 0 nan nan 548.6165 0.0000 nan 100.00%
0 0 304.9439 6 548.6165 304.9439 32 44.42%
0+ 0 nan nan 522.3973 304.9439 nan 41.63%
0 0 307.4910 8 522.3973 Disjcuts:6 42 41.14%
0+ 0 nan nan 462.2964 307.4910 nan 33.49%
0 0 312.9510 8 462.2964 Disjcuts:5 54 32.31%
0+ 0 nan nan 398.4261 312.9510 nan 21.45%
0 0 321.1952 7 398.4261 Disjcuts:9 65 19.38%
0+ 0 nan nan 392.1998 321.1952 nan 18.10%
0 0 328.6521 7 392.1998 Disjcuts:6 74 16.20%
0 0 340.2530 8 392.1998 Disjcuts:6 86 13.24%
0 2 341.6473 5 392.1998 341.9377 86 12.82%
CPXPARAM_MIP_Cuts_Disjunctive 4
35
Node Left Objective IInf Best_Integer Best_Bound ItCnt Gap
0+ 0 nan nan 671.2898 0.0000 nan 100.00%
0 0 integral 0 363.5184 363.5184 29 0.00%
CPXPARAM_MIP_Cuts_Disjunctive 0
36
Node Left Objective IInf Best_Integer Best_Bound ItCnt Gap
0+ 0 nan nan 758.0328 0.0000 nan 100.00%
0+ 0 nan nan 643.3001 0.0000 nan 100.00%
0 0 431.0120 7 643.3001 431.0120 48 33.00%
0+ 0 nan nan 591.9356 431.0120 nan 27.19%
0 0 433.9774 9 591.9356 Disjcuts:6 58 26.69%
0+ 0 nan nan 586.8010 433.9774 nan 26.04%
0 0 437.7576 9 586.8010 Disjcuts:8 70 25.40%
0 0 442.7135 9 586.8010 Disjcuts:8 86 24.55%
0+ 0 nan nan 511.1136 442.7135 nan 13.38%
0 0 444.2550 9 511.1136 Disjcuts:5 98 13.08%
0 0 445.5786 9 511.1136 Disjcuts:5 107 12.82%
0 0 445.9624 9 511.1136 Disjcuts:3 115 12.75%
0 0 446.1205 9 511.1136 Disjcuts:2 120 12.72%
0 0 446.2122 9 511.1136 Disjcuts:1 122 12.70%
0+ 0 nan nan 497.5652 446.2122 nan 10.32%
0 2 446.3495 8 497.5652 446.4221 122 10.28%
CPXPARAM_MIP_Cuts_Disjunctive 10
37
Node Left Objective IInf Best_Integer Best_Bound ItCnt Gap
0+ 0 nan nan 758.0328 0.0000 nan 100.00%
0 0 integral 0 431.0120 431.0120 52 0.00%
CPXPARAM_MIP_Cuts_Disjunctive 0
38
Node Left Objective IInf Best_Integer Best_Bound ItCnt Gap
0+ 0 nan nan 758.0328 0.0000 nan 100.00%
0+ 0 nan nan 644.4799 0.0000 nan 100.00%
0 0 431.2487 6 644.4799 431.2487 42 33.09%
0+ 0 nan nan 591.9356 431.2487 nan 27.15%
0 0 434.3745 8 591.9356 Disjcuts:4 51 26.62%
0 0 439.7582 9 591.9356 Disjcuts:10 66 25.71%
0+ 0 nan nan 534.0033 439.7582 nan 17.65%
0 0 444.3284 9 534.0033 Disjcuts:7 76 16.79%
0+ 0 nan nan 513.0512 444.3284 nan 13.39%
0 0 447.8723 9 513.0512 Disjcuts:7 86 12.70%
0 0 450.1483 8 513.0512 Disjcuts:4 95 12.26%
0 0 450.1942 8 513.0512 Disjcuts:1 96 12.25%
0+ 0 nan nan 497.5652 450.1942 nan 9.52%
0 2 451.0744 7 497.5652 451.4692 96 9.26%
CPXPARAM_MIP_Cuts_Disjunctive 10
39
Node Left Objective IInf Best_Integer Best_Bound ItCnt Gap
0+ 0 nan nan 758.0328 0.0000 nan 100.00%
0+ 0 nan nan 451.8439 0.0000 nan 100.00%
0 0 cutoff 451.8439 451.8439 34 0.00%
0 0 cutoff 451.8439 451.8439 34 0.00% 0
CPXPARAM_MIP_Cuts_Disjunctive 0
